HUN,8,6,625
1,4,5,19,2,22,4,28,0,19,3,27
1,20,2,6,5,26,0,26,4,21,3,4
5,28,0,20,4,11,2,24,1,13,3,30
3,12,0,1,5,10,4,24,2,13,1,9
0,23,4,20,2,14,3,1,5,17,1,19
2,20,5,14,1,14,4,1,3,8,0,28
5,6,0,8,4,21,3,9,1,5,2,11
4,7,1,18,2,25,5,9,3,21,0,6
